
Gurobi 13.0.2 (win64) logging started Thu Jul 23 04:16:38 2026

Set parameter LogFile to value "E:\codes\ExactEBRP\results\gf_cplex_equivalent_gurobi_replica_round28\runs\stage0_sentinel__moderate_seed4301__c3_replica__120s\external\native_logs\R.0.0.1.0.1.1.1.0_terminal_mip.gurobi.log"
Gurobi Optimizer version 13.0.2 build v13.0.2rc1 (win64 - Windows 10.0 (19045.2))

CPU model: 12th Gen Intel(R) Core(TM) i7-12700KF, instruction set [SSE2|AVX|AVX2]
Thread count: 12 physical cores, 20 logical processors, using up to 1 threads

Non-default parameters:
TimeLimit  4.7448273500000006e+01
MIPGap  0
MIPGapAbs  0
LogToConsole  0
Threads  1

Optimize a model with 11911 rows, 3376 columns and 67353 nonzeros (Min)
Model fingerprint: 0x3e69cc9f
Model has 21 linear objective coefficients
Variable types: 1685 continuous, 1691 integer (1491 binary)
Coefficient statistics:
  Matrix range     [3e-03, 2e+04]
  Objective range  [8e-03, 1e+00]
  Bounds range     [3e-03, 5e+01]
  RHS range        [3e-03, 5e+04]

Presolve removed 5036 rows and 568 columns
Presolve time: 0.37s
Presolved: 6875 rows, 2808 columns, 59590 nonzeros
Variable types: 1419 continuous, 1389 integer (1289 binary)

Root relaxation: infeasible, 2166 iterations, 0.09 seconds (0.21 work units)

    Nodes    |    Current Node    |     Objective Bounds      |     Work
 Expl Unexpl |  Obj  Depth IntInf | Incumbent    BestBd   Gap | It/Node Time

     0     0 infeasible    0               - infeasible      -     -    0s

Explored 1 nodes (2166 simplex iterations) in 0.49 seconds (0.83 work units)
Thread count was 1 (of 20 available processors)

Solution count 0

Model is infeasible
Best objective -, best bound -, gap -

User-callback calls 996, time in user-callback 0.00 sec
